feasible solution found by trivial heuristic after 0.0 seconds, objective value 0.000000e+00
presolving:
(round 1, fast)       449 del vars, 452 del conss, 0 add conss, 247 chg bounds, 111 chg sides, 0 chg coeffs, 0 upgd conss, 0 impls, 0 clqs
(round 2, fast)       560 del vars, 1506 del conss, 0 add conss, 336 chg bounds, 111 chg sides, 0 chg coeffs, 0 upgd conss, 0 impls, 876 clqs
(round 3, fast)       1436 del vars, 2382 del conss, 0 add conss, 336 chg bounds, 111 chg sides, 0 chg coeffs, 0 upgd conss, 0 impls, 0 clqs
   (0.0s) running MILP presolver
   (0.0s) MILP presolver found nothing
(round 4, exhaustive) 1436 del vars, 2382 del conss, 0 add conss, 336 chg bounds, 111 chg sides, 0 chg coeffs, 3830 upgd conss, 0 impls, 0 clqs
   (0.1s) probing: 51/2004 (2.5%) - 0 fixings, 0 aggregations, 0 implications, 0 bound changes
   (0.1s) probing aborted: 50/50 successive totally useless probings
   (0.1s) symmetry computation started: requiring (bin +, int -, cont +), (fixed: bin -, int +, cont -)
   (0.1s) no symmetry present
presolving (5 rounds: 5 fast, 2 medium, 2 exhaustive):
 1436 deleted vars, 2382 deleted constraints, 0 added constraints, 336 tightened bounds, 0 added holes, 111 changed sides, 0 changed coefficients
 0 implications, 0 cliques
presolved problem has 2004 variables (2004 bin, 0 int, 0 impl, 0 cont) and 3830 constraints
   3830 constraints of type <logicor>
Presolving Time: 0.09

 time | node  | left  |LP iter|LP it/n|mem/heur|mdpt |vars |cons |rows |cuts |sepa|confs|strbr|  dualbound   | primalbound  |  gap   | compl. 
t 0.1s|     1 |     0 |     0 |     - | trivial|   0 |2004 |3830 |   0 |   0 |  0 |   0 |   0 | 3.568143e+06 | 2.116000e+03 |  Large | unknown
t 0.1s|     1 |     0 |     0 |     - | trivial|   0 |2004 |3830 |   0 |   0 |  0 |   0 |   0 | 3.568143e+06 | 3.460952e+05 | 930.97%| unknown
p 0.1s|     1 |     0 |     0 |     - |   locks|   0 |2004 |3830 |3830 |   0 |  0 |   0 |   0 | 3.568143e+06 | 1.884265e+06 |  89.37%| unknown
  0.1s|     1 |     0 |   493 |     - |    38M |   0 |2004 |3830 |3830 |   0 |  0 |   0 |   0 | 3.033457e+06 | 1.884265e+06 |  60.99%| unknown
r 0.1s|     1 |     0 |   493 |     - |shifting|   0 |2004 |3830 |3830 |   0 |  0 |   0 |   0 | 3.033457e+06 | 2.045074e+06 |  48.33%| unknown
  0.2s|     1 |     0 |   624 |     - |    41M |   0 |2004 |3830 |3853 |  23 |  1 |   0 |   0 | 3.023860e+06 | 2.045074e+06 |  47.86%| unknown
  0.2s|     1 |     0 |   739 |     - |    42M |   0 |2004 |3830 |3872 |  42 |  2 |   0 |   0 | 3.014263e+06 | 2.045074e+06 |  47.39%| unknown
  0.3s|     1 |     0 |   839 |     - |    42M |   0 |2004 |3830 |3894 |  64 |  3 |   0 |   0 | 3.007278e+06 | 2.045074e+06 |  47.05%| unknown
  0.3s|     1 |     0 |   935 |     - |    42M |   0 |2004 |3830 |3912 |  82 |  4 |   0 |   0 | 3.002471e+06 | 2.045074e+06 |  46.81%| unknown
r 0.3s|     1 |     0 |   935 |     - |shifting|   0 |2004 |3830 |3912 |  82 |  4 |   0 |   0 | 3.002471e+06 | 2.119760e+06 |  41.64%| unknown
  0.4s|     1 |     0 |  1070 |     - |    43M |   0 |2004 |3830 |3934 | 104 |  5 |   0 |   0 | 2.995965e+06 | 2.119760e+06 |  41.34%| unknown
i 0.4s|     1 |     0 |  1070 |     - |  oneopt|   0 |2004 |3830 |3934 | 104 |  5 |   0 |   0 | 2.995965e+06 | 2.171866e+06 |  37.94%| unknown
  0.4s|     1 |     0 |  1238 |     - |    44M |   0 |2004 |3830 |3957 | 127 |  6 |   0 |   0 | 2.988428e+06 | 2.171866e+06 |  37.60%| unknown
  0.5s|     1 |     0 |  1349 |     - |    45M |   0 |2004 |3830 |3973 | 143 |  7 |   0 |   0 | 2.984192e+06 | 2.171866e+06 |  37.40%| unknown
  0.6s|     1 |     0 |  1456 |     - |    46M |   0 |2004 |3830 |3992 | 162 |  8 |   0 |   0 | 2.981111e+06 | 2.171866e+06 |  37.26%| unknown
 time | node  | left  |LP iter|LP it/n|mem/heur|mdpt |vars |cons |rows |cuts |sepa|confs|strbr|  dualbound   | primalbound  |  gap   | compl. 
  0.6s|     1 |     0 |  1560 |     - |    46M |   0 |2004 |3830 |4008 | 178 |  9 |   0 |   0 | 2.976205e+06 | 2.171866e+06 |  37.03%| unknown
  0.7s|     1 |     0 |  1644 |     - |    47M |   0 |2004 |3830 |4025 | 195 | 10 |   0 |   0 | 2.972212e+06 | 2.171866e+06 |  36.85%| unknown
  0.7s|     1 |     0 |  1775 |     - |    47M |   0 |2004 |3830 |4044 | 214 | 11 |   0 |   0 | 2.968226e+06 | 2.171866e+06 |  36.67%| unknown
  0.8s|     1 |     0 |  1872 |     - |    48M |   0 |2004 |3830 |4060 | 230 | 12 |   0 |   0 | 2.965692e+06 | 2.171866e+06 |  36.55%| unknown
  0.8s|     1 |     0 |  1974 |     - |    48M |   0 |2004 |3830 |4077 | 247 | 13 |   0 |   0 | 2.963051e+06 | 2.171866e+06 |  36.43%| unknown
  0.9s|     1 |     0 |  2085 |     - |    49M |   0 |2004 |3830 |4094 | 264 | 14 |   0 |   0 | 2.959154e+06 | 2.171866e+06 |  36.25%| unknown
  0.9s|     1 |     0 |  2180 |     - |    49M |   0 |2004 |3830 |4108 | 278 | 15 |   0 |   0 | 2.955111e+06 | 2.171866e+06 |  36.06%| unknown
  1.0s|     1 |     0 |  2306 |     - |    50M |   0 |2004 |3830 |4126 | 296 | 16 |   0 |   0 | 2.951182e+06 | 2.171866e+06 |  35.88%| unknown
  1.0s|     1 |     0 |  2441 |     - |    50M |   0 |2004 |3831 |4138 | 314 | 17 |   1 |   0 | 2.946072e+06 | 2.171866e+06 |  35.65%| unknown
  1.1s|     1 |     0 |  2604 |     - |    51M |   0 |2004 |3832 |4157 | 333 | 18 |   2 |   0 | 2.942169e+06 | 2.171866e+06 |  35.47%| unknown
  1.1s|     1 |     0 |  2770 |     - |    51M |   0 |2004 |3832 |4174 | 350 | 19 |   2 |   0 | 2.939317e+06 | 2.171866e+06 |  35.34%| unknown
  1.2s|     1 |     0 |  2991 |     - |    52M |   0 |2004 |3833 |4194 | 370 | 20 |   3 |   0 | 2.934301e+06 | 2.171866e+06 |  35.11%| unknown
  1.2s|     1 |     0 |  2996 |     - |    52M |   0 |2004 |3833 |4195 | 371 | 21 |   3 |   0 | 2.934158e+06 | 2.171866e+06 |  35.10%| unknown
  1.3s|     1 |     0 |  3024 |     - |    52M |   0 |2004 |3833 |4197 | 373 | 22 |   3 |   0 | 2.934000e+06 | 2.171866e+06 |  35.09%| unknown
  1.3s|     1 |     0 |  3043 |     - |    52M |   0 |2004 |3833 |4175 | 375 | 23 |   3 |   0 | 2.933816e+06 | 2.171866e+06 |  35.08%| unknown
 time | node  | left  |LP iter|LP it/n|mem/heur|mdpt |vars |cons |rows |cuts |sepa|confs|strbr|  dualbound   | primalbound  |  gap   | compl. 
d 2.1s|     1 |     0 |  7236 |     - |farkasdi|   0 |2004 |3834 |4175 |   0 | 25 |   4 |   0 | 2.933816e+06 | 2.546406e+06 |  15.21%| unknown
  2.5s|     1 |     0 | 10375 |     - |    52M |   0 |2004 |3834 |4175 | 375 | 25 |   4 |   0 | 2.933816e+06 | 2.546406e+06 |  15.21%| unknown
  5.0s|     1 |     2 | 10375 |     - |    52M |   0 |2004 |3835 |4175 | 375 | 27 |   5 |  25 | 2.895015e+06 | 2.546406e+06 |  13.69%| unknown
 26.0s|   100 |    49 | 45568 | 429.5 |    60M |  10 |2004 |3874 |4220 | 534 |  1 |  44 | 653 | 2.808619e+06 | 2.546406e+06 |  10.30%|  18.05%
 34.0s|   200 |    78 | 80445 | 389.0 |    61M |  10 |2004 |3877 |4215 | 568 |  0 |  47 | 755 | 2.783773e+06 | 2.546406e+06 |   9.32%|  25.42%
 44.6s|   300 |   131 |132219 | 432.0 |    64M |  10 |2004 |3909 |4217 | 597 |  1 |  79 | 905 | 2.750110e+06 | 2.546406e+06 |   8.00%|  30.80%
 54.9s|   400 |   137 |179735 | 442.8 |    69M |  10 |2004 |3934 |4271 | 690 |  0 | 104 |1060 | 2.708370e+06 | 2.546406e+06 |   6.36%|  44.35%
 66.2s|   500 |   103 |225129 | 445.1 |    73M |  10 |2004 |3968 |4288 | 776 |  0 | 138 |1260 | 2.686071e+06 | 2.546406e+06 |   5.48%|  55.41%
 79.1s|   600 |    49 |278535 | 459.9 |    74M |  10 |2004 |4070 |4294 | 776 |  0 | 240 |1488 | 2.661003e+06 | 2.546406e+06 |   4.50%|  70.71%

SCIP Status        : problem is solved [optimal solution found]
Solving Time (sec) : 87.45
Solving Nodes      : 661
Primal Bound       : +2.54640646112964e+06 (13 solutions)
Dual Bound         : +2.54640646112964e+06
Gap                : 0.00 %
Solve Status: optimal
Solve Time: 87.45 seconds
